CPXPARAM_TimeLimit                               3600
CPXPARAM_Read_DataCheck                          1
CPXPARAM_MIP_Strategy_HeuristicFreq              -1
Parallel mode: deterministic, using up to 8 threads for concurrent optimization.
Tried aggregator 1 time.
LP Presolve eliminated 27473 rows and 20475 columns.
Reduced LP has 23587 rows, 1801 columns, and 70049 nonzeros.
Presolve time = 0.02 sec. (25.05 ticks)

Iteration log . . .
Iteration:     1   Dual objective     =           935.000000
Perturbation started.
Iteration:   201   Dual objective     =           935.000000
Initializing dual steep norms . . .
Iteration:   202   Dual objective     =           935.000190
Iteration:   672   Dual objective     =           935.010742
Iteration:  1046   Dual objective     =           935.012186
Iteration:  1361   Dual objective     =           935.013451
Iteration:  1673   Dual objective     =           935.014167
Iteration:  1987   Dual objective     =           935.014522
Iteration:  2392   Dual objective     =           952.452498
Iteration:  2864   Dual objective     =           961.242618
Iteration:  3248   Dual objective     =           972.614568
Iteration:  3673   Dual objective     =           979.449585
Removing perturbation.

Dual simplex solved model.

